StudentsNr = 10;
InstructorsNr = 82;
DaysNr = 2;
SlotsPerDay = 15;
AvailabilitySlotsLenght = 15;
RoomNr = 2;
ProgrammNr = 1;
DegreeNr = 2;
RolesNr = 0;
CoursesNr = 2;
InstructorsProgramm = [{1}, {1}, {1}, {1}, {1}, {1}, {1}, {1}, {1}, {1}, {1}, {1}, {1}, {1}, {1}, {1}, {1}, {1}, {1}, {1}, {1}, {1}, {1}, {1}, {1}, {1}, {1}, {1}, {1}, {1}, {1}, {1}, {1}, {1}, {1}, {1}, {1}, {1}, {1}, {1}, {1}, {1}, {1}, {1}, {1}, {1}, {1}, {1}, {1}, {1}, {1}, {1}, {1}, {1}, {1}, {1}, {1}, {1}, {1}, {1}, {1}, {1}, {1}, {1}, {1}, {1}, {1}, {1}, {1}, {1}, {1}, {1}, {1}, {1}, {1}, {1}, {1}, {1}, {1}, {1}, {1}, {1}];
InstructorRolesPerProgramm = array2d(1..ProgrammNr,{},[]);
InstructorsAvailability = [|1, 1, |0, 1, |1, 1, |1, 1, |1, 1, |1, 1, |1, 1, |1, 1, |1, 1, |0, 1, |0, 1, |1, 1, |1, 0, |1, 1, |0, 1, |0, 1, |0, 0, |0, 1, |0, 1, |1, 1, |0, 0, |1, 1, |0, 0, |0, 0, |1, 1, |0, 1, |0, 1, |1, 1, |1, 1, |1, 1, |0, 1, |0, 0, |1, 1, |1, 1, |1, 1, |0, 1, |1, 1, |1, 1, |0, 1, |1, 1, |1, 1, |1, 0, |1, 0, |1, 1, |0, 1, |0, 1, |0, 1, |0, 0, |0, 1, |1, 1, |1, 1, |1, 1, |1, 1, |1, 0, |0, 1, |0, 1, |1, 1, |0, 1, |1, 1, |0, 0, |0, 0, |1, 1, |1, 0, |1, 1, |1, 1, |1, 1, |0, 1, |0, 0, |0, 0, |0, 1, |1, 1, |0, 1, |0, 0, |1, 0, |1, 1, |0, 0, |1, 1, |1, 1, |1, 1, |0, 1, |1, 1, |1, 1|];
StudentsProgramm = [1, 1, 1, 1, 1, 1, 1, 1, 1, 1];
StudentsDegree = [2, 2, 2, 1, 1, 1, 2, 2, 1, 2];
StudentsSupervisorId = [76, 14, 39, 79, 73, 59, 47, 29, 28, 72];
StudentsCourseIds = [{2}, {1}, {1}, {1, 2}, {1, 2}, {1, 2}, {1}, {1}, {1, 2}, {2}];
StudentsAvailability = [|1, 1, |0, 1, |1, 1, |0, 1, |1, 1, |1, 1, |1, 1, |1, 1, |1, 1, |1, 1|];
TheoryticalMinCard = [2, 2, 1, 2, 3, 2, 2, 1, 2, 1];
CoursesInstructorIds = [{4, 5, 6, 8, 9, 10, 12, 13, 15, 17, 18, 22, 23, 25, 26, 27, 29, 34, 35, 37, 38, 39, 40, 42, 44, 46, 48, 50, 52, 56, 59, 61, 64, 66, 67, 68, 69, 70, 71, 72, 74, 75, 77, 79, 81}, {1, 4, 5, 6, 7, 8, 14, 15, 16, 17, 18, 19, 21, 22, 23, 24, 26, 28, 31, 32, 38, 41, 42, 45, 46, 47, 48, 50, 52, 53, 55, 56, 61, 62, 64, 68, 70, 71, 72, 74, 78, 80}];
RolesDemands = [];
RolesContinuity = [];
ExamLen = [1, 1, 1, 2, 2, 2, 1, 1, 2, 1];
LunchTsMinLen = 0;
LunchStarts = [4..10, 19..26];
SupervisorAvailable = 0;
OptimalLunchLenght = [2, 0];
OptimalStartTs = [2, 0];
OptimalFinishTs = [2, 15];
MinimizeRooms = 0;
RolesSoftContinuity = array2d(1..2,{},[]);
SameDegreeInRoom = 0;
Mergeability = 2;
